12 16 6 10
17 17 17 15 16 2 4 18 11 4 2 6 12 5 19 14 
5.6 1.25 13.4 13.74 3.65 0.32 10.28 7.89 9.7 12.29 3.63 1.1 15.13 0.24 3.28 3.68 
7.79 11.4 10.85 13.12 6.53 3.47 1.23 6.82 12.86 9.78 10.08 1.81 15.93 14.49 9.47 11.84 
10.47 5.84 15.43 13.08 14.83 2.09 12.98 12.56 6.3 7.55 10.93 3.25 1.07 1.6 12.85 7.9 
15.47 8.12 5.44 5.09 5.35 9.67 10.08 12.09 3.21 12.61 12.62 4.61 3.13 12.74 9.73 3.15 
5.32 11.34 3.75 14.38 0.24 2.95 9.72 4.65 9.12 3.01 13.81 10.73 7.44 8.06 12.79 13.34 
0.42 1.54 16 7.75 9.19 10.84 8.56 7.64 10.45 9.42 8.63 8.84 5.15 15.8 9.64 10.79 
8 8 8 8 8 8 8 8 8 8 8 8 8 8 8 8 
3.74 0.13 10.77 4.79 16 11.56 2 10.76 0.5 10.67 9.75 5.73 9.49 1.71 15 4.58 
8.43 1.34 14.19 4.34 12.69 14.19 1.49 13.69 0.59 12.7 2.97 15.08 14.91 15.51 13.52 8.65 
0.27 12.67 15.56 1.66 12.99 10.45 3.3 6.63 12.82 8.11 1.02 13.21 11.26 4.91 4.44 1.91 
7.68 2.54 1.09 9.51 9.33 9.37 13.65 10.98 4.46 12.69 15.37 1.75 7.07 3.6 1.28 3.94 
15.05 1.51 1.73 2.36 7.72 14.74 1.51 11.76 13.37 7.08 10.9 9.32 10.44 3.57 1.08 8.33 
1 1 1 1 1 1 1 1 1 1 1 1 1 1 1 1 
1 1 1 1 1 1 1 1 1 1 1 1 1 1 1 1 
1 1 1 1 1 1 1 1 1 1 1 1 1 1 1 1 
1 1 1 1 1 1 1 1 1 1 1 1 1 1 1 1 
1 1 1 1 1 1 1 1 1 1 1 1 1 1 1 1 
1 1 1 1 1 1 1 1 1 1 1 1 1 1 1 1 
1 1 1 1 1 1 1 1 1 1 1 1 1 1 1 1 
1 1 1 1 1 1 1 1 1 1 1 1 1 1 1 1 
1 1 1 1 1 1 1 1 1 1 1 1 1 1 1 1 
1 1 1 1 1 1 1 1 1 1 1 1 1 1 1 1 
1 1 1 1 1 1 1 1 1 1 1 1 1 1 1 1 
1 1 1 1 1 1 1 1 1 1 1 1 1 1 1 1 
0.01 0.01 0.01 0.01 0.01 0.01 0.01 0.01 0.01 0.01 0.01 0.01 0.01 0.01 0.01 0.01 
0.02 0.02 0.02 0.02 0.02 0.02 0.02 0.02 0.02 0.02 0.02 0.02 0.02 0.02 0.02 0.02 
0.03 0.03 0.03 0.03 0.03 0.03 0.03 0.03 0.03 0.03 0.03 0.03 0.03 0.03 0.03 0.03 
0.04 0.04 0.04 0.04 0.04 0.04 0.04 0.04 0.04 0.04 0.04 0.04 0.04 0.04 0.04 0.04 
0.05 0.05 0.05 0.05 0.05 0.05 0.05 0.05 0.05 0.05 0.05 0.05 0.05 0.05 0.05 0.05 
0.06 0.06 0.06 0.06 0.06 0.06 0.06 0.06 0.06 0.06 0.06 0.06 0.06 0.06 0.06 0.06 
0.07 0.07 0.07 0.07 0.07 0.07 0.07 0.07 0.07 0.07 0.07 0.07 0.07 0.07 0.07 0.07 
0.2 0.2 0.2 0.2 0.2 0.2 0.2 0.2 0.2 0.2 0.2 0.2 0.2 0.2 0.2 0.2 
0.4 0.4 0.4 0.4 0.4 0.4 0.4 0.4 0.4 0.4 0.4 0.4 0.4 0.4 0.4 0.4 
0.6 0.6 0.6 0.6 0.6 0.6 0.6 0.6 0.6 0.6 0.6 0.6 0.6 0.6 0.6 0.6 
0.8 0.8 0.8 0.8 0.8 0.8 0.8 0.8 0.8 0.8 0.8 0.8 0.8 0.8 0.8 0.8 
1 1 1 1 1 1 1 1 1 1 1 1 1 1 1 1 
